1555060
7 14 6874
14 57 6904
57 8 1777
8 16 5356
16 26 1445
26 44 8214
44 64 16726
64 1 19463
1 47 7938
47 3 7248
3 19 4440
19 46 12843
46 12 9114
12 53 13536
53 0 18207
0 11 10465
11 41 4831
41 31 5759
31 55 1427
55 39 3489
39 4 3130
4 18 15574
18 48 8895
48 22 4353
22 59 7498
59 28 6419
28 24 9940
24 29 1249
29 40 5056
40 5 10602
5 63 32039
63 10 35955
10 65 13370
65 25 57991
25 54 61621
54 33 20835
33 45 36286
45 42 69394
42 6 52950
6 66 19183
66 37 15200
37 20 42598
20 2 17216
2 60 12947
60 23 5437
23 62 26977
62 15 14689
15 58 10880
58 35 8563
35 49 24707
49 27 10810
27 30 65445
30 21 39447
21 51 46274
51 32 101509
32 56 88918
56 17 27906
17 9 28652
9 13 62052
13 43 62420
43 52 84806
52 36 6554
36 61 30446
61 38 8740
38 50 11004
50 34 8926
34 67 19070
67 7 34471
